benchmarks_vrp/CMT1/fixed_c/CMT1_6.vrp
NAME: CMT1_6
TYPE: CVRP
COMMENT: 524.61 - Cluster Nr.6
DIMENSION: 6
CAPACITY: 160
EDGE_WEIGHT_TYPE: EUC_2D
NODE_COORD_TYPE: TWOD_COORDS
NODE_COORD_SECTION: 
2 30 40
1 25 55
4 16 57
5 5 64
3 27 68
6 17 63
DEPOT_SECTION: 
2
-1
DEMAND_SECTION: 
2 0
4 16
6 19
1 17
3 7
5 11
EOF
