benchmarks_vrp/CMT1/fixed_c/CMT1_6.tour
NAME: CMT1_6 solution
TYPE: TOUR
TOUR_SECTION:
2 1 3 6 5 4 -1
-1
EOF